11 200
0 0 70 70 0 0 1351 0 0 0
1 73 87 39 20 35 439 90 0 122
2 116 93 36 20 41 484 90 0 91
3 12 95 35 10 43 429 90 0 139
4 164 97 29 30 49 427 90 0 70
5 66 97 28 20 49 564 90 0 47
6 122 84 36 -20 370 823 90 73 0
7 91 98 31 -20 306 715 90 116 0
8 139 84 39 -10 464 915 90 12 0
9 70 103 34 -30 473 739 90 164 0
10 47 99 28 -20 132 703 90 66 0

